* #variable= 200 #constraint= 1
min: -814 x1 -312 x2 -946 x3 -112 x4 -8 x5 -618 x6 -992 x7 -830 x8 -562 x9 -876 x10 -192 x11 -482 x12 -578 x13 -396 x14 -890 x15 -790 x16 -474 x17 -504 x18 -944 x19 -780 x20 -674 x21 -176 x22 -784 x23 -84 x24 -618 x25 -988 x26 -810 x27 -236 x28 -546 x29 -40 x30 -738 x31 -22 x32 -98 x33 -600 x34 -414 x35 -652 x36 -918 x37 -692 x38 -604 x39 -924 x40 -306 x41 -172 x42 -822 x43 -672 x44 -346 x45 -654 x46 -268 x47 -330 x48 -722 x49 -938 x50 -214 x51 -456 x52 -624 x53 -554 x54 -70 x55 -890 x56 -796 x57 -340 x58 -404 x59 -658 x60 -456 x61 -766 x62 -298 x63 -418 x64 -970 x65 -950 x66 -970 x67 -272 x68 -42 x69 -734 x70 -622 x71 -454 x72 -874 x73 -674 x74 -66 x75 -896 x76 -74 x77 -112 x78 -884 x79 -518 x80 -380 x81 -526 x82 -24 x83 -928 x84 -900 x85 -572 x86 -372 x87 -852 x88 -956 x89 -740 x90 -608 x91 -948 x92 -296 x93 -734 x94 -848 x95 -22 x96 -172 x97 -958 x98 -566 x99 -404 x100 -668 x101 -608 x102 -438 x103 -524 x104 -314 x105 -36 x106 -634 x107 -566 x108 -542 x109 -518 x110 -62 x111 -660 x112 -262 x113 -612 x114 -208 x115 -398 x116 -10 x117 -666 x118 -472 x119 -12 x120 -202 x121 -914 x122 -448 x123 -992 x124 -518 x125 -772 x126 -688 x127 -328 x128 -274 x129 -428 x130 -842 x131 -142 x132 -954 x133 -930 x134 -588 x135 -720 x136 -370 x137 -670 x138 -664 x139 -952 x140 -228 x141 -834 x142 -548 x143 -696 x144 -932 x145 -138 x146 -588 x147 -648 x148 -630 x149 -392 x150 -878 x151 -68 x152 -808 x153 -376 x154 -680 x155 -638 x156 -374 x157 -626 x158 -352 x159 -178 x160 -580 x161 -356 x162 -212 x163 -296 x164 -240 x165 -144 x166 -680 x167 -916 x168 -220 x169 -754 x170 -56 x171 -526 x172 -230 x173 -636 x174 -434 x175 -600 x176 -104 x177 -766 x178 -552 x179 -264 x180 -210 x181 -28 x182 -930 x183 -120 x184 -58 x185 -644 x186 -462 x187 -254 x188 -294 x189 -30 x190 -178 x191 -648 x192 -382 x193 -458 x194 -518 x195 -538 x196 -194 x197 -594 x198 -354 x199 -606 x200 ;
-814 x1 -312 x2 -946 x3 -112 x4 -8 x5 -618 x6 -992 x7 -830 x8 -562 x9 -876 x10 -192 x11 -482 x12 -578 x13 -396 x14 -890 x15 -790 x16 -474 x17 -504 x18 -944 x19 -780 x20 -674 x21 -176 x22 -784 x23 -84 x24 -618 x25 -988 x26 -810 x27 -236 x28 -546 x29 -40 x30 -738 x31 -22 x32 -98 x33 -600 x34 -414 x35 -652 x36 -918 x37 -692 x38 -604 x39 -924 x40 -306 x41 -172 x42 -822 x43 -672 x44 -346 x45 -654 x46 -268 x47 -330 x48 -722 x49 -938 x50 -214 x51 -456 x52 -624 x53 -554 x54 -70 x55 -890 x56 -796 x57 -340 x58 -404 x59 -658 x60 -456 x61 -766 x62 -298 x63 -418 x64 -970 x65 -950 x66 -970 x67 -272 x68 -42 x69 -734 x70 -622 x71 -454 x72 -874 x73 -674 x74 -66 x75 -896 x76 -74 x77 -112 x78 -884 x79 -518 x80 -380 x81 -526 x82 -24 x83 -928 x84 -900 x85 -572 x86 -372 x87 -852 x88 -956 x89 -740 x90 -608 x91 -948 x92 -296 x93 -734 x94 -848 x95 -22 x96 -172 x97 -958 x98 -566 x99 -404 x100 -668 x101 -608 x102 -438 x103 -524 x104 -314 x105 -36 x106 -634 x107 -566 x108 -542 x109 -518 x110 -62 x111 -660 x112 -262 x113 -612 x114 -208 x115 -398 x116 -10 x117 -666 x118 -472 x119 -12 x120 -202 x121 -914 x122 -448 x123 -992 x124 -518 x125 -772 x126 -688 x127 -328 x128 -274 x129 -428 x130 -842 x131 -142 x132 -954 x133 -930 x134 -588 x135 -720 x136 -370 x137 -670 x138 -664 x139 -952 x140 -228 x141 -834 x142 -548 x143 -696 x144 -932 x145 -138 x146 -588 x147 -648 x148 -630 x149 -392 x150 -878 x151 -68 x152 -808 x153 -376 x154 -680 x155 -638 x156 -374 x157 -626 x158 -352 x159 -178 x160 -580 x161 -356 x162 -212 x163 -296 x164 -240 x165 -144 x166 -680 x167 -916 x168 -220 x169 -754 x170 -56 x171 -526 x172 -230 x173 -636 x174 -434 x175 -600 x176 -104 x177 -766 x178 -552 x179 -264 x180 -210 x181 -28 x182 -930 x183 -120 x184 -58 x185 -644 x186 -462 x187 -254 x188 -294 x189 -30 x190 -178 x191 -648 x192 -382 x193 -458 x194 -518 x195 -538 x196 -194 x197 -594 x198 -354 x199 -606 x200 >= -51495 ;